--- Job without_instrument.gms Start 02/14/22 08:49:46 30.3.0 rc5da09e WEX-WEI x86 64bit/MS Windows
--- GAMS Parameters defined
    Input C:\Users\a.eicke\Documents\Locational-investment-signals\Two node models\without_instrument.gms
    PageSize 0
    ScrDir C:\Users\a.eicke\Documents\Locational-investment-signals\Two node models\225a\
    SysDir C:\GAMS\win64\30.3\
    LogOption 3
    ErrMsg 1
    ErrorLog 99
    IDE 1
    LstTitleLeftAligned 1
GAMS 30.3.0   Copyright (C) 1987-2020 GAMS Development. All rights reserved
Licensee: Small MUD - 5 User License                     S190305:0326AO-WIN
          Hertie School of Governance GmbH, Governance of DigitalizaDC14808
--- Starting compilation
--- without_instrument.gms(72) 3 Mb
--- GDXin=C:\Users\a.eicke\Documents\Locational-investment-signals\Two node models\in.gdx
--- without_instrument.gms(75) 3 Mb
--- GDXin=C:\Users\a.eicke\Documents\Locational-investment-signals\Two node models\load.gdx
--- without_instrument.gms(78) 3 Mb
--- GDXin=C:\Users\a.eicke\Documents\Locational-investment-signals\Two node models\avail.gdx
--- without_instrument.gms(300) 3 Mb
--- Starting execution: elapsed 0:00:00.008
--- without_instrument.gms(267) 4 Mb
--- Generating MIQCP model LOCI
--- without_instrument.gms(270) 6 Mb
---   696 rows  529 columns  1,924 non-zeroes
---   142 nl-code  22 nl-non-zeroes
---   142 discrete-columns
--- without_instrument.gms(270) 4 Mb
--- Executing CPLEX: elapsed 0:00:00.021

IBM ILOG CPLEX   30.3.0 rc5da09e Released Mar 06, 2020 WEI x86 64bit/MS Window
--- GAMS/Cplex licensed for continuous and discrete problems.
Cplex 12.10.0.0

The search will stop after 80000000 nodes.
Reading data...
Starting Cplex...
Space for names approximately 0.04 Mb
Use option 'names no' to turn use of names off
Version identifier: 12.10.0.0 | 2019-11-26 | 843d4de2ae
CPXPARAM_Advance                                 0
CPXPARAM_Threads                                 1
CPXPARAM_Parallel                                1
CPXPARAM_MIP_Display                             4
CPXPARAM_Simplex_Limits_Iterations               2000000000
CPXPARAM_MIP_Limits_Nodes                        80000000
CPXPARAM_TimeLimit                               200000
CPXPARAM_Tune_TimeLimit                          40000
CPXPARAM_MIP_Tolerances_AbsMIPGap                0
CPXPARAM_WorkDir                                 "C:\Users\a.eicke\Documents\Locational-investment-signals\Two node models\225a\"
Tried aggregator 2 times.
MIQP Presolve eliminated 221 rows and 57 columns.
MIQP Presolve modified 193 coefficients.
Aggregator did 19 substitutions.
Reduced MIQP has 456 rows, 451 columns, and 1370 nonzeros.
Reduced MIQP has 127 binaries, 0 generals, 0 SOSs, and 0 indicators.
Reduced MIQP objective Q matrix has 22 nonzeros.
Presolve time = 0.00 sec. (1.21 ticks)
Probing fixed 7 vars, tightened 139 bounds.
Probing time = 0.00 sec. (0.59 ticks)
Cover probing fixed 0 vars, tightened 9 bounds.
Tried aggregator 2 times.
MIQP Presolve eliminated 14 rows and 14 columns.
MIQP Presolve modified 70 coefficients.
Aggregator did 3 substitutions.
Reduced MIQP has 439 rows, 434 columns, and 1303 nonzeros.
Reduced MIQP has 120 binaries, 0 generals, 0 SOSs, and 0 indicators.
Reduced MIQP objective Q matrix has 22 nonzeros.
Presolve time = 0.00 sec. (0.69 ticks)
Classifier predicts products in MIQP should be linearized.
Probing fixed 3 vars, tightened 190 bounds.
Probing time = 0.00 sec. (0.70 ticks)
Clique table members: 117.
MIP emphasis: balance optimality and feasibility.
MIP search method: dynamic search.
Parallel mode: none, using 1 thread.
Tried aggregator 1 time.
QP Presolve eliminated 39 rows and 39 columns.
Aggregator did 99 substitutions.
Reduced QP has 301 rows, 296 columns, and 1006 nonzeros.
Reduced QP objective Q matrix has 22 nonzeros.
Presolve time = 0.00 sec. (0.35 ticks)
Parallel mode: none, using 1 thread for barrier

***NOTE: Found 6 dense columns.

Number of nonzeros in lower triangle of A*A' = 1362
Using Approximate Minimum Degree ordering
Total time for automatic ordering = 0.00 sec. (0.13 ticks)
Summary statistics for Cholesky factor:
  Rows in Factor            = 307
  Integer space required    = 802
  Total non-zeros in factor = 4091
  Total FP ops to factor    = 78135
 Itn      Primal Obj        Dual Obj  Prim Inf Upper Inf  Dual Inf          
   0  -2.5934227e+08   5.5658005e+08  2.95e+05  2.53e+05  8.59e+05
   1  -4.1049591e+06   4.3833670e+07  3.66e+04  3.13e+04  1.07e+05
   2  -2.8664433e+05   1.3364184e+07  1.06e+04  9.08e+03  3.11e+04
   3   5.5520497e+04   5.7235065e+06  3.87e+03  3.32e+03  1.14e+04
   4   1.5785774e+05   1.2226391e+06  5.15e+02  4.41e+02  1.51e+03
   5   1.8407464e+05   4.1103373e+05  9.22e+01  7.88e+01  2.70e+02
   6   1.9092253e+05   3.1451103e+05  3.25e+01  2.78e+01  9.53e+01
   7   1.9968086e+05   2.3412055e+05  7.87e+00  6.73e+00  2.30e+01
   8   2.0202392e+05   2.1983657e+05  3.62e+00  3.09e+00  1.06e+01
   9   2.0271617e+05   2.1043434e+05  4.60e-01  3.93e-01  1.35e+00
  10   2.0333072e+05   2.0728151e+05  1.79e-01  1.53e-01  5.22e-01
  11   2.0386178e+05   2.0460315e+05  2.15e-02  1.83e-02  6.28e-02
  12   2.0398334e+05   2.0402473e+05  1.05e-03  8.93e-04  3.06e-03
  13   2.0399063e+05   2.0399707e+05  1.61e-04  1.38e-04  4.72e-04
  14   2.0399153e+05   2.0399237e+05  2.10e-05  1.80e-05  6.15e-05
  15   2.0399165e+05   2.0399169e+05  1.01e-06  8.60e-07  2.94e-06
  16   2.0399165e+05   2.0399165e+05  2.78e-08  7.56e-09  2.51e-08
  17   2.0399165e+05   2.0399165e+05  1.38e-08  2.24e-10  1.24e-10
Barrier time = 0.00 sec. (4.49 ticks)

QP crossover.
  Primal and Dual:  Fixing 176 variables.
  Primal:  Pushed 89, exchanged 67.
  Dual  :  Pushed 9, exchanged 52.
Removing shift (1).
Total crossover time = 0.01 sec. (3.19 ticks)

Total time on 1 threads = 0.01 sec. (8.06 ticks)
Root relaxation solution time = 0.01 sec. (8.06 ticks)

        Nodes                                         Cuts/
   Node  Left     Objective  IInf  Best Integer    Best Bound    ItCnt     Gap

      0     0   203991.6513    75                 203991.6513       17         
      0     0   203991.6513    75                   Cuts: 209      302         
      0     0   203991.6513    75                   Cuts: 178      499         
      0     0   203991.6513    75                    Cuts: 78      680         
      0     0   203991.6513    75                    Cuts: 57      754         
      0     0   203991.6513    75                    Cuts: 12      772         
      0     2   203991.6513    43                 203991.6513      772         
Elapsed time = 0.25 sec. (120.70 ticks, tree = 0.01 MB, solutions = 0)
     98    77   203755.0695    10                 203991.6513     7258         
                                                  Impl Bds: 4                  
    249   198   203535.4950    10                 203991.6513    13726         
                                                  Impl Bds: 2                  
    380   289   203795.3277    11                 203991.6513    21646         
                                                  Impl Bds: 4                  
    525   391   203781.8329    11                 203991.6513    29798         
                                                  Impl Bds: 7                  

Performing restart 1

Repeating presolve.
Tried aggregator 2 times.
MIQP Presolve eliminated 6 rows and 6 columns.
MIQP Presolve modified 110 coefficients.
Aggregator did 3 substitutions.
Reduced MIQP has 430 rows, 425 columns, and 1276 nonzeros.
Reduced MIQP has 117 binaries, 0 generals, 0 SOSs, and 0 indicators.
Reduced MIQP objective Q matrix has 22 nonzeros.
Presolve time = 0.00 sec. (0.92 ticks)
Tried aggregator 1 time.
MIQP Presolve eliminated 15 rows and 15 columns.
MIQP Presolve modified 86 coefficients.
Reduced MIQP has 415 rows, 410 columns, and 1235 nonzeros.
Reduced MIQP has 106 binaries, 0 generals, 0 SOSs, and 0 indicators.
Reduced MIQP objective Q matrix has 22 nonzeros.
Presolve time = 0.00 sec. (0.52 ticks)
Tried aggregator 1 time.
MIQP Presolve modified 82 coefficients.
Reduced MIQP has 415 rows, 410 columns, and 1235 nonzeros.
Reduced MIQP has 106 binaries, 0 generals, 0 SOSs, and 0 indicators.
Reduced MIQP objective Q matrix has 22 nonzeros.
Presolve time = 0.00 sec. (0.50 ticks)
Represolve time = 0.02 sec. (4.19 ticks)
Tried aggregator 1 time.
QP Presolve eliminated 14 rows and 0 columns.
Aggregator did 70 substitutions.
Reduced QP has 473 rows, 340 columns, and 1493 nonzeros.
Reduced QP objective Q matrix has 22 nonzeros.
Presolve time = 0.00 sec. (0.39 ticks)
Parallel mode: none, using 1 thread for barrier

***NOTE: Found 6 dense columns.

Number of nonzeros in lower triangle of A*A' = 3148
Using Approximate Minimum Degree ordering
Total time for automatic ordering = 0.00 sec. (0.25 ticks)
Summary statistics for Cholesky factor:
  Rows in Factor            = 479
  Integer space required    = 1689
  Total non-zeros in factor = 9803
  Total FP ops to factor    = 277797
 Itn      Primal Obj        Dual Obj  Prim Inf Upper Inf  Dual Inf          
   0  -2.1399081e+10   2.1610326e+10  8.13e+04  4.05e+04  3.78e+08
   1  -9.3918590e+09   9.5345296e+09  5.39e+04  2.68e+04  2.50e+08
   2  -2.6932849e+09   2.7850426e+09  2.89e+04  1.44e+04  1.34e+08
   3  -1.3967313e+08   1.6360787e+08  6.60e+03  3.29e+03  3.07e+07
   4  -4.7611452e+06   1.0233360e+07  1.24e+03  6.16e+02  5.76e+06
   5  -1.0423544e+06   4.3293116e+06  6.07e+02  3.02e+02  2.82e+06
   6   1.3807059e+05   7.5044220e+05  8.84e+01  4.40e+01  4.11e+05
   7   1.4477797e+05   7.2600643e+05  7.84e+01  3.90e+01  3.65e+05
   8   1.6640480e+05   5.7974537e+05  4.86e+01  2.42e+01  2.26e+05
   9   1.8156959e+05   5.1121063e+05  3.54e+01  1.76e+01  1.65e+05
  10   1.9074787e+05   3.6531286e+05  1.20e+01  5.97e+00  5.59e+04
  11   1.9930679e+05   2.4422235e+05  2.68e+00  1.33e+00  1.25e+04
  12   2.0174680e+05   2.2206542e+05  8.53e-01  4.25e-01  3.98e+03
  13   2.0278117e+05   2.1235844e+05  1.39e-01  6.93e-02  6.49e+02
  14   2.0348135e+05   2.0766251e+05  4.28e-02  2.13e-02  2.00e+02
  15   2.0383955e+05   2.0484259e+05  8.80e-04  4.38e-04  4.10e+00
  16   2.0397409e+05   2.0409362e+05  9.81e-05  4.88e-05  4.57e-01
  17   2.0398852e+05   2.0401247e+05  1.95e-05  9.72e-06  9.10e-02
  18   2.0399133e+05   2.0399428e+05  2.39e-06  1.19e-06  1.12e-02
  19   2.0399160e+05   2.0399209e+05  4.04e-07  2.00e-07  1.87e-03
  20   2.0399165e+05   2.0399166e+05  9.52e-09  1.86e-09  1.67e-05
  21   2.0399165e+05   2.0399165e+05  9.46e-09  1.46e-10  1.89e-07
  22   2.0399165e+05   2.0399165e+05  4.11e-09  1.41e-10  2.34e-09
Barrier time = 0.03 sec. (10.67 ticks)

QP crossover.
  Primal and Dual:  Fixing 196 variables.
  Primal:  Pushed 74, exchanged 104.
  Dual  :  Pushed 13, exchanged 89.

Iteration log . . .
Iteration:     1    Objective     =        203991.651341
Total crossover time = 0.02 sec. (4.45 ticks)

Total time on 1 threads = 0.05 sec. (15.56 ticks)
    537     0   203991.6513    50                   Cuts: 161    31224         
    537     0   203991.6513    50                    Cuts: 63    31260         
    537     0   203991.6513    50                    Cuts: 30    31294         
    537     0   203991.6513    50                    Cuts: 18    31322         
    553    18   203991.6513    33                 203991.6513    31714         
    611    76   201980.0491     8                 203991.6513    35604         
*   667    98      integral     0   202576.2862   203991.6513    39179    0.70%
Found incumbent of value 202576.286212 after 3.41 sec. (1694.60 ticks)
*   737+  135                       202613.6090   203991.6513             0.68%
Found incumbent of value 202613.608996 after 3.66 sec. (1843.29 ticks)
*   737+  135                       202656.7380   203991.6513             0.66%
Found incumbent of value 202656.738014 after 3.69 sec. (1861.37 ticks)
    785   160        cutoff         202656.7380   203991.6513    44430    0.66%
    837   191   203991.6513    16   202656.7380   203991.6513    45572    0.66%
   1137   380   203902.6220    15   202656.7380   203986.9793    53068    0.66%
Elapsed time = 6.52 sec. (3407.78 ticks, tree = 0.14 MB, solutions = 3)
   1337   515   202910.4104    16   202656.7380   203971.2729    58452    0.65%
   1611   633   203905.9811    14   202656.7380   203905.9811    66220    0.62%
   2722  1348   203902.6220    22   202656.7380   203902.6220    92117    0.61%
   3687  1834   202991.0482    21   202656.7380   203897.2093   119465    0.61%
   4790  2342   203657.9947    28   202656.7380   203877.1392   147378    0.60%
   5505  2649   203797.2232    15   202656.7380   203875.3974   176471    0.60%
   6349  2807        cutoff         202656.7380   203812.4270   208136    0.57%
   7178  2832        cutoff         202656.7380   203750.5690   238499    0.54%
   8075  2730        cutoff         202656.7380   203673.1516   267694    0.50%
   9194  2792   203063.6205    19   202656.7380   203364.0540   292568    0.35%
Elapsed time = 23.23 sec. (13543.14 ticks, tree = 1.03 MB, solutions = 3)
  10355  2933        cutoff         202656.7380   203293.9088   319226    0.31%
  11492  2794   202966.2801     6   202656.7380   203210.8352   345330    0.27%
  12588  2713   202997.5143    18   202656.7380   203000.2027   368746    0.17%
  13785  3080   202956.3452    17   202656.7380   202999.5798   400041    0.17%
  14932  3450   202988.2121    17   202656.7380   202997.1224   429333    0.17%
  16091  3743        cutoff         202656.7380   202992.2985   460084    0.17%
  17044  3755        cutoff         202656.7380   202984.0327   492480    0.16%
  18057  3930   202660.9486    20   202656.7380   202979.6230   521687    0.16%
  19190  3907        cutoff         202656.7380   202965.2743   548407    0.15%
  20345  3773   202869.1839    14   202656.7380   202937.0883   576211    0.14%
Elapsed time = 39.47 sec. (23088.12 ticks, tree = 1.34 MB, solutions = 3)
  21482  3924   202666.8447     8   202656.7380   202924.7530   603396    0.13%
  22608  4133        cutoff         202656.7380   202922.2305   637954    0.13%
  23870  4511   202684.0238    10   202656.7380   202911.3546   670916    0.13%
  24934  4679   202843.4669    14   202656.7380   202906.8435   703404    0.12%
  25781  4651        cutoff         202656.7380   202902.2179   733446    0.12%
  26933  4678   202858.5738    20   202656.7380   202894.3624   759797    0.12%
  27956  4580   202724.0229    15   202656.7380   202873.6249   786551    0.11%
  29297  4859        cutoff         202656.7380   202864.7711   814461    0.10%
  30665  5158   202772.6184     6   202656.7380   202857.2971   841241    0.10%
  32001  5679   202816.1452    10   202656.7380   202855.2075   870866    0.10%
Elapsed time = 54.89 sec. (32634.38 ticks, tree = 2.07 MB, solutions = 3)
  33124  5875        cutoff         202656.7380   202852.1671   901203    0.10%
  34231  5991   202848.4435    20   202656.7380   202851.3415   928934    0.10%
  35412  5959        cutoff         202656.7380   202849.3338   950563    0.10%
  36891  5925        cutoff         202656.7380   202847.9229   970472    0.09%
  38176  5502        cutoff         202656.7380   202847.3599   987337    0.09%
  39412  5548   202689.3868     7   202656.7380   202844.6850  1010122    0.09%
  40602  5236   202840.5662     7   202656.7380   202840.5662  1031231    0.09%
  41718  5267        cutoff         202656.7380   202839.5260  1045715    0.09%
  43097  4988        cutoff         202656.7380   202836.0914  1063884    0.09%
  44050  4776        cutoff         202656.7380   202829.7445  1091260    0.09%
Elapsed time = 70.42 sec. (42181.27 ticks, tree = 1.79 MB, solutions = 3)
  45327  4405   202692.3274    24   202656.7380   202820.1502  1108555    0.08%
  46415  4220   202815.3110    25   202656.7380   202815.3110  1137548    0.08%
  47029  4217        cutoff         202656.7380   202811.4666  1153179    0.08%
  48262  3931        cutoff         202656.7380   202795.6188  1172185    0.07%
  49535  3837        cutoff         202656.7380   202780.6316  1198235    0.06%
  50669  3720   202666.8018     7   202656.7380   202769.1629  1221448    0.06%
  52087  3808   202760.3658     4   202656.7380   202760.3658  1240005    0.05%
  53150  3363        cutoff         202656.7380   202753.4622  1265839    0.05%
  54513  3030        cutoff         202656.7380   202746.0870  1281348    0.04%
  55671  2592   202669.4772    19   202656.7380   202731.7329  1301869    0.04%
Elapsed time = 86.78 sec. (51726.32 ticks, tree = 1.11 MB, solutions = 3)
  56953  1980        cutoff         202656.7380   202692.3274  1317818    0.02%
  58751  2590   202680.2135    23   202656.7380   202687.2225  1344066    0.02%
  60039  2265        cutoff         202656.7380   202684.9204  1363054    0.01%
  61124  1811   202680.3062    18   202656.7380   202681.1725  1377183    0.01%

Clique cuts applied:  7
Implied bound cuts applied:  19
Flow cuts applied:  18
Mixed integer rounding cuts applied:  28

Root node processing (before b&c):
  Real time             =    0.23 sec. (120.74 ticks)
Sequential b&c:
  Real time             =   94.05 sec. (56303.58 ticks)
                          ------------
Total (root+branch&cut) =   94.28 sec. (56424.32 ticks)
MIQP status(102): integer optimal, tolerance
Cplex Time: 94.28sec (det. 56424.32 ticks)
Fixing integer variables, and solving final QP..
Version identifier: 12.10.0.0 | 2019-11-26 | 843d4de2ae
CPXPARAM_Advance                                 2
CPXPARAM_Threads                                 1
CPXPARAM_Parallel                                1
CPXPARAM_MIP_Display                             4
CPXPARAM_Simplex_Limits_Iterations               2000000000
CPXPARAM_MIP_Limits_Nodes                        80000000
CPXPARAM_TimeLimit                               200000
CPXPARAM_Tune_TimeLimit                          40000
CPXPARAM_MIP_Tolerances_AbsMIPGap                0
CPXPARAM_WorkDir                                 "C:\Users\a.eicke\Documents\Locational-investment-signals\Two node models\225a\"
Tried aggregator 1 time.
QP Presolve eliminated 534 rows and 378 columns.
Aggregator did 81 substitutions.
Reduced QP has 81 rows, 70 columns, and 338 nonzeros.
Reduced QP objective Q matrix has 19 nonzeros.
Presolve time = 0.00 sec. (0.53 ticks)
Parallel mode: none, using 1 thread for barrier
Number of nonzeros in lower triangle of A*A' = 1291
Using Approximate Minimum Degree ordering
Total time for automatic ordering = 0.00 sec. (0.05 ticks)
Summary statistics for Cholesky factor:
  Rows in Factor            = 81
  Integer space required    = 195
  Total non-zeros in factor = 1556
  Total FP ops to factor    = 36304
 Itn      Primal Obj        Dual Obj  Prim Inf Upper Inf  Dual Inf          
   0  -2.2246939e+06   4.5871136e+06  6.93e+03  2.14e+03  6.65e+04
   1  -1.5614586e+06   3.7166508e+06  5.83e+03  1.80e+03  5.59e+04
   2  -3.9947587e+05   1.8677488e+06  3.12e+03  9.62e+02  3.00e+04
   3   1.3915857e+05   6.1167324e+05  7.30e+02  2.25e+02  7.14e+03
   4   1.9978762e+05   2.6301648e+05  7.96e+01  2.46e+01  7.78e+02
   5   1.9854110e+05   2.3617923e+05  2.15e+01  6.63e+00  2.10e+02
   6   2.0146872e+05   2.0971551e+05  4.51e+00  1.39e+00  4.43e+01
   7   2.0233730e+05   2.0459977e+05  8.39e-01  2.59e-01  8.29e+00
   8   2.0256331e+05   2.0307106e+05  1.64e-03  5.07e-04  1.62e-02
   9   2.0263448e+05   2.0274474e+05  3.28e-04  1.01e-04  3.24e-03
  10   2.0265563e+05   2.0266204e+05  1.38e-05  4.25e-06  1.36e-04
  11   2.0265672e+05   2.0265689e+05  7.55e-08  2.33e-08  7.45e-07
  12   2.0265674e+05   2.0265674e+05  3.57e-10  9.67e-11  3.09e-09
  13   2.0265674e+05   2.0265674e+05  1.98e-10  2.97e-11  1.52e-11
Barrier time = 0.00 sec. (1.80 ticks)

Total time on 1 threads = 0.00 sec. (1.80 ticks)
QP status(1): optimal
Cplex Time: 0.00sec (det. 1.80 ticks)

Solution satisfies tolerances.

MIP Solution:       202656.738014    (1400372 iterations, 62250 nodes)
Final Solve:        202656.738011    (0 iterations)

Best possible:      202676.791047
Absolute gap:           20.053033
Relative gap:            0.000099

--- Restarting execution
--- without_instrument.gms(270) 2 Mb
--- Reading solution for model LOCI
--- Executing after solve: elapsed 0:01:34.505
--- without_instrument.gms(300) 3 Mb
--- GDX File C:\Users\a.eicke\Documents\Locational-investment-signals\Two node models\Output/without_instrument.gdx
*** Status: Normal completion
--- Job without_instrument.gms Stop 02/14/22 08:51:21 elapsed 0:01:34.521
